(set-info :smt-lib-version 2.6)
(set-logic QF_NIA)
(set-info :source |
Generated by: Cristina Borralleras, Daniel Larraz, Albert Oliveras, Enric Rodriguez-Carbonell, Albert Rubio
Generated on: 2017-04-27
Generator: VeryMax
Application: Termination proving
Target solver: barcelogic
|)
(set-info :license "https://creativecommons.org/licenses/by/4.0/")
(set-info :category "industrial")
(set-info :status sat)
(declare-fun Nl2x^01 () Int)
(declare-fun Nl2y^01 () Int)
(declare-fun Nl2z^01 () Int)
(declare-fun Nl2x^02 () Int)
(declare-fun Nl2y^02 () Int)
(declare-fun Nl2z^02 () Int)
(declare-fun Nl2x^03 () Int)
(declare-fun Nl2y^03 () Int)
(declare-fun Nl2z^03 () Int)
(declare-fun lam0n0 () Int)
(declare-fun lam0n1 () Int)
(declare-fun lam0n3 () Int)
(declare-fun lam0n4 () Int)
(declare-fun lam0n5 () Int)
(declare-fun lam0n2 () Int)
(declare-fun Nl2CT1 () Int)
(declare-fun Nl2CT2 () Int)
(declare-fun Nl2CT3 () Int)
(declare-fun lam1n0 () Int)
(declare-fun lam1n1 () Int)
(declare-fun lam1n3 () Int)
(declare-fun lam1n4 () Int)
(declare-fun lam1n5 () Int)
(declare-fun lam1n2 () Int)
(declare-fun lam2n0 () Int)
(declare-fun lam2n1 () Int)
(declare-fun lam2n3 () Int)
(declare-fun lam2n4 () Int)
(declare-fun lam2n5 () Int)
(declare-fun lam2n2 () Int)
(declare-fun lam3n0 () Int)
(declare-fun lam3n1 () Int)
(declare-fun lam3n3 () Int)
(declare-fun lam3n4 () Int)
(declare-fun lam3n5 () Int)
(declare-fun lam3n2 () Int)
(declare-fun lam4n0 () Int)
(declare-fun lam4n1 () Int)
(declare-fun lam4n2 () Int)
(declare-fun lam4n3 () Int)
(declare-fun lam4n4 () Int)
(declare-fun lam5n0 () Int)
(declare-fun lam5n1 () Int)
(declare-fun lam5n2 () Int)
(declare-fun lam5n3 () Int)
(declare-fun lam5n4 () Int)
(declare-fun lam6n0 () Int)
(declare-fun lam6n1 () Int)
(declare-fun lam6n2 () Int)
(declare-fun lam6n3 () Int)
(declare-fun lam6n4 () Int)
(declare-fun lam7n0 () Int)
(declare-fun lam7n1 () Int)
(declare-fun lam7n2 () Int)
(declare-fun lam7n3 () Int)
(declare-fun lam7n4 () Int)
(declare-fun x^0 () Int)
(declare-fun y^0 () Int)
(declare-fun z^0 () Int)
(declare-fun lam14n0 () Int)
(declare-fun lam14n1 () Int)
(declare-fun lam14n3 () Int)
(declare-fun lam14n4 () Int)
(declare-fun lam14n5 () Int)
(declare-fun lam14n2 () Int)
(declare-fun RFN1_CT () Int)
(declare-fun RFN1_y^0 () Int)
(declare-fun RFN1_z^0 () Int)
(declare-fun RFN1_x^0 () Int)
(declare-fun lam12n0 () Int)
(declare-fun lam12n1 () Int)
(declare-fun lam12n3 () Int)
(declare-fun lam12n4 () Int)
(declare-fun lam12n5 () Int)
(declare-fun lam12n2 () Int)
(declare-fun lam13n0 () Int)
(declare-fun lam13n1 () Int)
(declare-fun lam13n3 () Int)
(declare-fun lam13n4 () Int)
(declare-fun lam13n5 () Int)
(declare-fun lam13n2 () Int)
(declare-fun lam11n0 () Int)
(declare-fun lam11n1 () Int)
(declare-fun lam11n3 () Int)
(declare-fun lam11n4 () Int)
(declare-fun lam11n5 () Int)
(declare-fun lam11n2 () Int)
(assert ( and ( <= ( - 1 ) Nl2x^01 ) ( <= Nl2x^01 1 ) ( <= ( - 1 ) Nl2y^01 ) ( <= Nl2y^01 1 ) ( <= ( - 1 ) Nl2z^01 ) ( <= Nl2z^01 1 ) ( <= ( - 1 ) Nl2x^02 ) ( <= Nl2x^02 1 ) ( <= ( - 1 ) Nl2y^02 ) ( <= Nl2y^02 1 ) ( <= ( - 1 ) Nl2z^02 ) ( <= Nl2z^02 1 ) ( <= ( - 1 ) Nl2x^03 ) ( <= Nl2x^03 1 ) ( <= ( - 1 ) Nl2y^03 ) ( <= Nl2y^03 1 ) ( <= ( - 1 ) Nl2z^03 ) ( <= Nl2z^03 1 ) ))
(assert ( or ( and ( >= lam0n0 0 ) ( >= lam0n1 0 ) ( >= lam0n3 0 ) ( >= lam0n4 0 ) ( >= lam0n5 0 ) ( > ( + ( * ( - 1 ) lam0n2 ) ( * Nl2CT1 lam0n3 ) ( * Nl2CT2 lam0n4 ) ( * Nl2CT3 lam0n5 ) ( - 1 ) ) 0 ) ( = ( + ( * ( - 1 ) lam0n0 ) ( * Nl2x^01 lam0n3 ) ( * Nl2x^02 lam0n4 ) ( * Nl2x^03 lam0n5 ) ) 0 ) ( = ( + ( * 1 lam0n1 ) ( * 1 lam0n2 ) ( * Nl2y^01 lam0n3 ) ( * Nl2y^02 lam0n4 ) ( * Nl2y^03 lam0n5 ) ) 0 ) ( = ( + ( * ( - 1 ) lam0n1 ) ( * Nl2z^01 lam0n3 ) ( * Nl2z^02 lam0n4 ) ( * Nl2z^03 lam0n5 ) ) 0 ) ( = ( * ( - 1 ) lam0n2 ) 0 ) ) ( and ( >= lam1n0 0 ) ( >= lam1n1 0 ) ( >= lam1n3 0 ) ( >= lam1n4 0 ) ( >= lam1n5 0 ) ( > ( + ( * ( - 1 ) lam1n2 ) ( * Nl2CT1 lam1n3 ) ( * Nl2CT2 lam1n4 ) ( * Nl2CT3 lam1n5 ) ( - 1 ( + ( + Nl2CT1 ( * Nl2y^01 0 ) ) ( * Nl2z^01 0 ) ) ) ) 0 ) ( = ( + ( * ( - 1 ) lam1n0 ) ( * Nl2x^01 lam1n3 ) ( * Nl2x^02 lam1n4 ) ( * Nl2x^03 lam1n5 ) ( - ( + 0 Nl2x^01 ) ) ) 0 ) ( = ( + ( * 1 lam1n1 ) ( * 1 lam1n2 ) ( * Nl2y^01 lam1n3 ) ( * Nl2y^02 lam1n4 ) ( * Nl2y^03 lam1n5 ) ) 0 ) ( = ( + ( * ( - 1 ) lam1n1 ) ( * Nl2z^01 lam1n3 ) ( * Nl2z^02 lam1n4 ) ( * Nl2z^03 lam1n5 ) ( - ( + 0 ( * Nl2z^01 1 ) ) ) ) 0 ) ( = ( + ( * ( - 1 ) lam1n2 ) ( - ( + ( + 0 ( * Nl2y^01 1 ) ) ( * Nl2z^01 1 ) ) ) ) 0 ) ) ))
(assert ( or ( and ( >= lam0n0 0 ) ( >= lam0n1 0 ) ( >= lam0n3 0 ) ( >= lam0n4 0 ) ( >= lam0n5 0 ) ( > ( + ( * ( - 1 ) lam0n2 ) ( * Nl2CT1 lam0n3 ) ( * Nl2CT2 lam0n4 ) ( * Nl2CT3 lam0n5 ) ( - 1 ) ) 0 ) ( = ( + ( * ( - 1 ) lam0n0 ) ( * Nl2x^01 lam0n3 ) ( * Nl2x^02 lam0n4 ) ( * Nl2x^03 lam0n5 ) ) 0 ) ( = ( + ( * 1 lam0n1 ) ( * 1 lam0n2 ) ( * Nl2y^01 lam0n3 ) ( * Nl2y^02 lam0n4 ) ( * Nl2y^03 lam0n5 ) ) 0 ) ( = ( + ( * ( - 1 ) lam0n1 ) ( * Nl2z^01 lam0n3 ) ( * Nl2z^02 lam0n4 ) ( * Nl2z^03 lam0n5 ) ) 0 ) ( = ( * ( - 1 ) lam0n2 ) 0 ) ) ( and ( >= lam2n0 0 ) ( >= lam2n1 0 ) ( >= lam2n3 0 ) ( >= lam2n4 0 ) ( >= lam2n5 0 ) ( > ( + ( * ( - 1 ) lam2n2 ) ( * Nl2CT1 lam2n3 ) ( * Nl2CT2 lam2n4 ) ( * Nl2CT3 lam2n5 ) ( - 1 ( + ( + Nl2CT2 ( * Nl2y^02 0 ) ) ( * Nl2z^02 0 ) ) ) ) 0 ) ( = ( + ( * ( - 1 ) lam2n0 ) ( * Nl2x^01 lam2n3 ) ( * Nl2x^02 lam2n4 ) ( * Nl2x^03 lam2n5 ) ( - ( + 0 Nl2x^02 ) ) ) 0 ) ( = ( + ( * 1 lam2n1 ) ( * 1 lam2n2 ) ( * Nl2y^01 lam2n3 ) ( * Nl2y^02 lam2n4 ) ( * Nl2y^03 lam2n5 ) ) 0 ) ( = ( + ( * ( - 1 ) lam2n1 ) ( * Nl2z^01 lam2n3 ) ( * Nl2z^02 lam2n4 ) ( * Nl2z^03 lam2n5 ) ( - ( + 0 ( * Nl2z^02 1 ) ) ) ) 0 ) ( = ( + ( * ( - 1 ) lam2n2 ) ( - ( + ( + 0 ( * Nl2y^02 1 ) ) ( * Nl2z^02 1 ) ) ) ) 0 ) ) ))
(assert ( or ( and ( >= lam0n0 0 ) ( >= lam0n1 0 ) ( >= lam0n3 0 ) ( >= lam0n4 0 ) ( >= lam0n5 0 ) ( > ( + ( * ( - 1 ) lam0n2 ) ( * Nl2CT1 lam0n3 ) ( * Nl2CT2 lam0n4 ) ( * Nl2CT3 lam0n5 ) ( - 1 ) ) 0 ) ( = ( + ( * ( - 1 ) lam0n0 ) ( * Nl2x^01 lam0n3 ) ( * Nl2x^02 lam0n4 ) ( * Nl2x^03 lam0n5 ) ) 0 ) ( = ( + ( * 1 lam0n1 ) ( * 1 lam0n2 ) ( * Nl2y^01 lam0n3 ) ( * Nl2y^02 lam0n4 ) ( * Nl2y^03 lam0n5 ) ) 0 ) ( = ( + ( * ( - 1 ) lam0n1 ) ( * Nl2z^01 lam0n3 ) ( * Nl2z^02 lam0n4 ) ( * Nl2z^03 lam0n5 ) ) 0 ) ( = ( * ( - 1 ) lam0n2 ) 0 ) ) ( and ( >= lam3n0 0 ) ( >= lam3n1 0 ) ( >= lam3n3 0 ) ( >= lam3n4 0 ) ( >= lam3n5 0 ) ( > ( + ( * ( - 1 ) lam3n2 ) ( * Nl2CT1 lam3n3 ) ( * Nl2CT2 lam3n4 ) ( * Nl2CT3 lam3n5 ) ( - 1 ( + ( + Nl2CT3 ( * Nl2y^03 0 ) ) ( * Nl2z^03 0 ) ) ) ) 0 ) ( = ( + ( * ( - 1 ) lam3n0 ) ( * Nl2x^01 lam3n3 ) ( * Nl2x^02 lam3n4 ) ( * Nl2x^03 lam3n5 ) ( - ( + 0 Nl2x^03 ) ) ) 0 ) ( = ( + ( * 1 lam3n1 ) ( * 1 lam3n2 ) ( * Nl2y^01 lam3n3 ) ( * Nl2y^02 lam3n4 ) ( * Nl2y^03 lam3n5 ) ) 0 ) ( = ( + ( * ( - 1 ) lam3n1 ) ( * Nl2z^01 lam3n3 ) ( * Nl2z^02 lam3n4 ) ( * Nl2z^03 lam3n5 ) ( - ( + 0 ( * Nl2z^03 1 ) ) ) ) 0 ) ( = ( + ( * ( - 1 ) lam3n2 ) ( - ( + ( + 0 ( * Nl2y^03 1 ) ) ( * Nl2z^03 1 ) ) ) ) 0 ) ) ))
(assert ( or ( and ( >= lam4n0 0 ) ( >= lam4n1 0 ) ( >= lam4n2 0 ) ( >= lam4n3 0 ) ( >= lam4n4 0 ) ( > ( + ( * Nl2CT1 lam4n2 ) ( * Nl2CT2 lam4n3 ) ( * Nl2CT3 lam4n4 ) ( - 1 ) ) 0 ) ( = ( + ( * ( - 1 ) lam4n0 ) ( * Nl2x^01 lam4n2 ) ( * Nl2x^02 lam4n3 ) ( * Nl2x^03 lam4n4 ) ) 0 ) ( = ( + ( * 1 lam4n1 ) ( * Nl2y^01 lam4n2 ) ( * Nl2y^02 lam4n3 ) ( * Nl2y^03 lam4n4 ) ) 0 ) ( = ( + ( * ( - 1 ) lam4n1 ) ( * Nl2z^01 lam4n2 ) ( * Nl2z^02 lam4n3 ) ( * Nl2z^03 lam4n4 ) ) 0 ) ) ( and ( >= lam5n0 0 ) ( >= lam5n1 0 ) ( >= lam5n2 0 ) ( >= lam5n3 0 ) ( >= lam5n4 0 ) ( > ( + ( * Nl2CT1 lam5n2 ) ( * Nl2CT2 lam5n3 ) ( * Nl2CT3 lam5n4 ) ( - 1 ( + ( + Nl2CT1 ( * Nl2x^01 ( - 1 ) ) ) ( * Nl2y^01 ( - 1 ) ) ) ) ) 0 ) ( = ( + ( * ( - 1 ) lam5n0 ) ( * Nl2x^01 lam5n2 ) ( * Nl2x^02 lam5n3 ) ( * Nl2x^03 lam5n4 ) ( - ( + 0 ( * Nl2x^01 1 ) ) ) ) 0 ) ( = ( + ( * 1 lam5n1 ) ( * Nl2y^01 lam5n2 ) ( * Nl2y^02 lam5n3 ) ( * Nl2y^03 lam5n4 ) ( - ( + 0 ( * Nl2y^01 1 ) ) ) ) 0 ) ( = ( + ( * ( - 1 ) lam5n1 ) ( * Nl2z^01 lam5n2 ) ( * Nl2z^02 lam5n3 ) ( * Nl2z^03 lam5n4 ) ( - ( + 0 Nl2z^01 ) ) ) 0 ) ) ))
(assert ( or ( and ( >= lam4n0 0 ) ( >= lam4n1 0 ) ( >= lam4n2 0 ) ( >= lam4n3 0 ) ( >= lam4n4 0 ) ( > ( + ( * Nl2CT1 lam4n2 ) ( * Nl2CT2 lam4n3 ) ( * Nl2CT3 lam4n4 ) ( - 1 ) ) 0 ) ( = ( + ( * ( - 1 ) lam4n0 ) ( * Nl2x^01 lam4n2 ) ( * Nl2x^02 lam4n3 ) ( * Nl2x^03 lam4n4 ) ) 0 ) ( = ( + ( * 1 lam4n1 ) ( * Nl2y^01 lam4n2 ) ( * Nl2y^02 lam4n3 ) ( * Nl2y^03 lam4n4 ) ) 0 ) ( = ( + ( * ( - 1 ) lam4n1 ) ( * Nl2z^01 lam4n2 ) ( * Nl2z^02 lam4n3 ) ( * Nl2z^03 lam4n4 ) ) 0 ) ) ( and ( >= lam6n0 0 ) ( >= lam6n1 0 ) ( >= lam6n2 0 ) ( >= lam6n3 0 ) ( >= lam6n4 0 ) ( > ( + ( * Nl2CT1 lam6n2 ) ( * Nl2CT2 lam6n3 ) ( * Nl2CT3 lam6n4 ) ( - 1 ( + ( + Nl2CT2 ( * Nl2x^02 ( - 1 ) ) ) ( * Nl2y^02 ( - 1 ) ) ) ) ) 0 ) ( = ( + ( * ( - 1 ) lam6n0 ) ( * Nl2x^01 lam6n2 ) ( * Nl2x^02 lam6n3 ) ( * Nl2x^03 lam6n4 ) ( - ( + 0 ( * Nl2x^02 1 ) ) ) ) 0 ) ( = ( + ( * 1 lam6n1 ) ( * Nl2y^01 lam6n2 ) ( * Nl2y^02 lam6n3 ) ( * Nl2y^03 lam6n4 ) ( - ( + 0 ( * Nl2y^02 1 ) ) ) ) 0 ) ( = ( + ( * ( - 1 ) lam6n1 ) ( * Nl2z^01 lam6n2 ) ( * Nl2z^02 lam6n3 ) ( * Nl2z^03 lam6n4 ) ( - ( + 0 Nl2z^02 ) ) ) 0 ) ) ))
(assert ( or ( and ( >= lam4n0 0 ) ( >= lam4n1 0 ) ( >= lam4n2 0 ) ( >= lam4n3 0 ) ( >= lam4n4 0 ) ( > ( + ( * Nl2CT1 lam4n2 ) ( * Nl2CT2 lam4n3 ) ( * Nl2CT3 lam4n4 ) ( - 1 ) ) 0 ) ( = ( + ( * ( - 1 ) lam4n0 ) ( * Nl2x^01 lam4n2 ) ( * Nl2x^02 lam4n3 ) ( * Nl2x^03 lam4n4 ) ) 0 ) ( = ( + ( * 1 lam4n1 ) ( * Nl2y^01 lam4n2 ) ( * Nl2y^02 lam4n3 ) ( * Nl2y^03 lam4n4 ) ) 0 ) ( = ( + ( * ( - 1 ) lam4n1 ) ( * Nl2z^01 lam4n2 ) ( * Nl2z^02 lam4n3 ) ( * Nl2z^03 lam4n4 ) ) 0 ) ) ( and ( >= lam7n0 0 ) ( >= lam7n1 0 ) ( >= lam7n2 0 ) ( >= lam7n3 0 ) ( >= lam7n4 0 ) ( > ( + ( * Nl2CT1 lam7n2 ) ( * Nl2CT2 lam7n3 ) ( * Nl2CT3 lam7n4 ) ( - 1 ( + ( + Nl2CT3 ( * Nl2x^03 ( - 1 ) ) ) ( * Nl2y^03 ( - 1 ) ) ) ) ) 0 ) ( = ( + ( * ( - 1 ) lam7n0 ) ( * Nl2x^01 lam7n2 ) ( * Nl2x^02 lam7n3 ) ( * Nl2x^03 lam7n4 ) ( - ( + 0 ( * Nl2x^03 1 ) ) ) ) 0 ) ( = ( + ( * 1 lam7n1 ) ( * Nl2y^01 lam7n2 ) ( * Nl2y^02 lam7n3 ) ( * Nl2y^03 lam7n4 ) ( - ( + 0 ( * Nl2y^03 1 ) ) ) ) 0 ) ( = ( + ( * ( - 1 ) lam7n1 ) ( * Nl2z^01 lam7n2 ) ( * Nl2z^02 lam7n3 ) ( * Nl2z^03 lam7n4 ) ( - ( + 0 Nl2z^03 ) ) ) 0 ) ) ))
(assert ( and ( <= ( + Nl2CT1 ( * ( + 0 Nl2x^01 ) x^0 ) ( * ( + 0 Nl2y^01 ) y^0 ) ( * ( + 0 Nl2z^01 ) z^0 ) ) 0 ) ( <= ( + Nl2CT2 ( * ( + 0 Nl2x^02 ) x^0 ) ( * ( + 0 Nl2y^02 ) y^0 ) ( * ( + 0 Nl2z^02 ) z^0 ) ) 0 ) ( <= ( + Nl2CT3 ( * ( + 0 Nl2x^03 ) x^0 ) ( * ( + 0 Nl2y^03 ) y^0 ) ( * ( + 0 Nl2z^03 ) z^0 ) ) 0 ) ))
(assert ( or ( and ( and ( >= lam14n0 0 ) ( >= lam14n1 0 ) ( >= lam14n3 0 ) ( >= lam14n4 0 ) ( >= lam14n5 0 ) ( > ( + ( * ( - 1 ) lam14n2 ) ( * Nl2CT1 lam14n3 ) ( * Nl2CT2 lam14n4 ) ( * Nl2CT3 lam14n5 ) ( - 1 ( - ( + ( + RFN1_CT ( * RFN1_y^0 0 ) ) ( * RFN1_z^0 0 ) ) RFN1_CT ) ) ) 0 ) ( = ( + ( * ( - 1 ) lam14n0 ) ( * Nl2x^01 lam14n3 ) ( * Nl2x^02 lam14n4 ) ( * Nl2x^03 lam14n5 ) ( - ( - ( + 0 RFN1_x^0 ) RFN1_x^0 ) ) ) 0 ) ( = ( + ( * 1 lam14n1 ) ( * 1 lam14n2 ) ( * Nl2y^01 lam14n3 ) ( * Nl2y^02 lam14n4 ) ( * Nl2y^03 lam14n5 ) ( - ( - RFN1_y^0 ) ) ) 0 ) ( = ( + ( * ( - 1 ) lam14n1 ) ( * Nl2z^01 lam14n3 ) ( * Nl2z^02 lam14n4 ) ( * Nl2z^03 lam14n5 ) ( - ( - ( + 0 ( * RFN1_z^0 1 ) ) RFN1_z^0 ) ) ) 0 ) ( = ( + ( * ( - 1 ) lam14n2 ) ( - ( + ( + 0 ( * RFN1_y^0 1 ) ) ( * RFN1_z^0 1 ) ) ) ) 0 ) ) ( and ( and ( >= lam12n0 0 ) ( >= lam12n1 0 ) ( >= lam12n3 0 ) ( >= lam12n4 0 ) ( >= lam12n5 0 ) ( > ( + ( * ( - 1 ) lam12n2 ) ( * Nl2CT1 lam12n3 ) ( * Nl2CT2 lam12n4 ) ( * Nl2CT3 lam12n5 ) ( - 1 ( - RFN1_CT ) ) ) 0 ) ( = ( + ( * ( - 1 ) lam12n0 ) ( * Nl2x^01 lam12n3 ) ( * Nl2x^02 lam12n4 ) ( * Nl2x^03 lam12n5 ) ( - ( - RFN1_x^0 ) ) ) 0 ) ( = ( + ( * 1 lam12n1 ) ( * 1 lam12n2 ) ( * Nl2y^01 lam12n3 ) ( * Nl2y^02 lam12n4 ) ( * Nl2y^03 lam12n5 ) ( - ( - RFN1_y^0 ) ) ) 0 ) ( = ( + ( * ( - 1 ) lam12n1 ) ( * Nl2z^01 lam12n3 ) ( * Nl2z^02 lam12n4 ) ( * Nl2z^03 lam12n5 ) ( - ( - RFN1_z^0 ) ) ) 0 ) ( = ( * ( - 1 ) lam12n2 ) 0 ) ) ( and ( >= lam13n0 0 ) ( >= lam13n1 0 ) ( >= lam13n3 0 ) ( >= lam13n4 0 ) ( >= lam13n5 0 ) ( > ( + ( * ( - 1 ) lam13n2 ) ( * Nl2CT1 lam13n3 ) ( * Nl2CT2 lam13n4 ) ( * Nl2CT3 lam13n5 ) ( - 1 ( + ( - ( + ( + RFN1_CT ( * RFN1_y^0 0 ) ) ( * RFN1_z^0 0 ) ) RFN1_CT ) 1 ) ) ) 0 ) ( = ( + ( * ( - 1 ) lam13n0 ) ( * Nl2x^01 lam13n3 ) ( * Nl2x^02 lam13n4 ) ( * Nl2x^03 lam13n5 ) ( - ( - ( + 0 RFN1_x^0 ) RFN1_x^0 ) ) ) 0 ) ( = ( + ( * 1 lam13n1 ) ( * 1 lam13n2 ) ( * Nl2y^01 lam13n3 ) ( * Nl2y^02 lam13n4 ) ( * Nl2y^03 lam13n5 ) ( - ( - RFN1_y^0 ) ) ) 0 ) ( = ( + ( * ( - 1 ) lam13n1 ) ( * Nl2z^01 lam13n3 ) ( * Nl2z^02 lam13n4 ) ( * Nl2z^03 lam13n5 ) ( - ( - ( + 0 ( * RFN1_z^0 1 ) ) RFN1_z^0 ) ) ) 0 ) ( = ( + ( * ( - 1 ) lam13n2 ) ( - ( + ( + 0 ( * RFN1_y^0 1 ) ) ( * RFN1_z^0 1 ) ) ) ) 0 ) ) ) ) ( and ( >= lam11n0 0 ) ( >= lam11n1 0 ) ( >= lam11n3 0 ) ( >= lam11n4 0 ) ( >= lam11n5 0 ) ( > ( + ( * ( - 1 ) lam11n2 ) ( * Nl2CT1 lam11n3 ) ( * Nl2CT2 lam11n4 ) ( * Nl2CT3 lam11n5 ) ( - 1 ) ) 0 ) ( = ( + ( * ( - 1 ) lam11n0 ) ( * Nl2x^01 lam11n3 ) ( * Nl2x^02 lam11n4 ) ( * Nl2x^03 lam11n5 ) ) 0 ) ( = ( + ( * 1 lam11n1 ) ( * 1 lam11n2 ) ( * Nl2y^01 lam11n3 ) ( * Nl2y^02 lam11n4 ) ( * Nl2y^03 lam11n5 ) ) 0 ) ( = ( + ( * ( - 1 ) lam11n1 ) ( * Nl2z^01 lam11n3 ) ( * Nl2z^02 lam11n4 ) ( * Nl2z^03 lam11n5 ) ) 0 ) ( = ( * ( - 1 ) lam11n2 ) 0 ) ) ))
(check-sat)
(exit)
